n = 30;
rows = 74;
supports = [|
  {1},{1},
 |{1},9..23,
 |{2},{2},
 |{2},10..24,
 |{3},{3},
 |{3},11..25,
 |{4},{4},
 |{4},12..26,
 |{5},{5},
 |{5},13..27,
 |{6},{6},
 |{6},14..28,
 |{7},{7},
 |{7},15..29,
 |{8},{8},
 |{8},16..30,
 |{9},{9},
 |{9},{1},
 |{9},17..30,
 |{10},{10},
 |{10},1..2,
 |{10},18..30,
 |{11},{11},
 |{11},1..3,
 |{11},19..30,
 |{12},{12},
 |{12},1..4,
 |{12},20..30,
 |{13},{13},
 |{13},1..5,
 |{13},21..30,
 |{14},{14},
 |{14},1..6,
 |{14},22..30,
 |{15},{15},
 |{15},1..7,
 |{15},23..30,
 |{16},{16},
 |{16},1..8,
 |{16},24..30,
 |{17},{17},
 |{17},1..9,
 |{17},25..30,
 |{18},{18},
 |{18},1..10,
 |{18},26..30,
 |{19},{19},
 |{19},1..11,
 |{19},27..30,
 |{20},{20},
 |{20},1..12,
 |{20},28..30,
 |{21},{21},
 |{21},1..13,
 |{21},29..30,
 |{22},{22},
 |{22},1..14,
 |{22},{30},
 |{23},{23},
 |{23},1..15,
 |{24},{24},
 |{24},2..16,
 |{25},{25},
 |{25},3..17,
 |{26},{26},
 |{26},4..18,
 |{27},{27},
 |{27},5..19,
 |{28},{28},
 |{28},6..20,
 |{29},{29},
 |{29},7..21,
 |{30},{30},
 |{30},8..22 |];

t = 103;

indexes = [|
    0,5,
  | 0,6,
  | 0,9,
  | 0,10,
  | 0,11,
  | 0,14,
  | 0,22,
  | 1,16,
  | 1,20,
  | 1,23,
  | 1,24,
  | 1,28,
  | 2,5,
  | 2,11,
  | 2,14,
  | 2,17,
  | 2,18,
  | 2,22,
  | 2,29,
  | 3,8,
  | 3,16,
  | 3,19,
  | 3,24,
  | 3,25,
  | 3,26,
  | 3,27,
  | 4,7,
  | 4,12,
  | 4,15,
  | 4,20,
  | 4,28,
  | 5,8,
  | 5,9,
  | 5,14,
  | 5,17,
  | 5,19,
  | 5,25,
  | 5,27,
  | 6,9,
  | 6,10,
  | 6,19,
  | 6,25,
  | 7,12,
  | 7,13,
  | 7,15,
  | 7,18,
  | 7,21,
  | 7,29,
  | 8,13,
  | 8,14,
  | 8,18,
  | 8,21,
  | 8,26,
  | 8,27,
  | 8,29,
  | 9,10,
  | 9,11,
  | 9,14,
  | 9,22,
  | 10,19,
  | 10,25,
  | 11,17,
  | 11,22,
  | 12,15,
  | 12,20,
  | 12,28,
  | 13,15,
  | 13,16,
  | 13,20,
  | 13,21,
  | 13,24,
  | 13,27,
  | 13,28,
  | 14,17,
  | 14,19,
  | 14,25,
  | 14,27,
  | 15,18,
  | 15,21,
  | 15,29,
  | 16,21,
  | 16,23,
  | 16,24,
  | 16,26,
  | 17,18,
  | 17,22,
  | 17,29,
  | 18,27,
  | 18,29,
  | 19,25,
  | 19,26,
  | 20,21,
  | 20,23,
  | 20,28,
  | 21,24,
  | 21,27,
  | 21,28,
  | 23,24,
  | 23,28,
  | 24,26,
  | 25,26,
  | 26,27,
  | 27,29 |];

